
Gurobi 9.5.1 (linux64) logging started Tue 16 Aug 2022 08:47:27 PM MST

Set parameter LogFile to value "/home/local/ASUAD/kmajd1/NNRepLayer_v2/demos/walking_example/dynamic_constraint/repair_net/logs/opt_log_multi_25.log"
Gurobi Optimizer version 9.5.1 build v9.5.1rc2 (linux64)
Thread count: 48 physical cores, 96 logical processors, using up to 48 threads
Optimize a model with 15477 rows, 9832 columns and 126677 nonzeros
Model fingerprint: 0x96833abd
Model has 135 quadratic objective terms
Variable types: 5512 continuous, 4320 integer (4320 binary)
Coefficient statistics:
  Matrix range     [5e-05, 6e+01]
  Objective range  [3e-02, 3e+00]
  QObjective range [1e-01, 1e-01]
  Bounds range     [9e-04, 3e+02]
  RHS range        [2e-04, 6e+01]

Concurrent MIP optimizer: 3 concurrent instances (16 threads per instance)

Presolve removed 398 rows and 64 columns
Presolve time: 0.21s
Presolved: 15079 rows, 9768 columns, 126152 nonzeros
Presolved model has 135 quadratic objective terms
Variable types: 5448 continuous, 4320 integer (4320 binary)
Root relaxation presolve removed 4320 rows and 4320 columns
Root relaxation presolved: 10759 rows, 5448 columns, 113192 nonzeros
Root relaxation presolved model has 135 quadratic objective terms


Root relaxation: objective 1.791139e+01, 7047 iterations, 0.39 seconds (0.69 work units)

    Nodes    |    Current Node    |     Objective Bounds      |     Work
 Expl Unexpl |  Obj  Depth IntInf | Incumbent    BestBd   Gap | It/Node Time

     0     0      -    -    -              -   17.91139      -     -    0s
     0     0      -    -    -              -   17.91139      -     -    3s
     0     2      -    -    -              -   17.91139      -     -    9s
    15    32      -    -    -              -   17.91139      -     -   10s
  1727  1810      -    -    -              -   17.91139      -     -   15s
  4523  4726      -    -    -              -   17.91139      -     -   20s
  7297  7520      -    -    -              -   17.91139      -     -   25s
  9683  9873      -    -    -              -   17.91139      -     -   30s
 10303 10303      -    -    -              -   17.91139      -     -   35s
 10305  9300      -    -    -       28.04598   17.91139  36.1%     -   53s
 10336  8872      -    -    -       28.04598   17.91139  36.1%     -   59s
 10416  8078      -    -    -       28.04598   17.91139  36.1%     -   60s
 10546  7751      -    -    -       27.09434   17.91139  33.9%     -   82s

Instance 1 was solved

Explored 10400 nodes (582586 simplex iterations) in 83.25 seconds (120.95 work units)
Thread count was 16 (of 96 available processors)

Solution count 10: 27.0943 27.1626 27.2454 ... 28.046 

Optimal solution found (tolerance 3.50e-01)
Best objective 2.709434245420e+01, best bound 1.791139144564e+01, gap 33.8925%
